
******************************************************************************
This program contains Ipopt, a library for large-scale nonlinear optimization.
 Ipopt is released as open source code under the Eclipse Public License (EPL).
         For more information visit https://github.com/coin-or/Ipopt
******************************************************************************

This is Ipopt version 3.14.19, running with linear solver MUMPS 5.8.1.

Number of nonzeros in equality constraint Jacobian...:     2204
Number of nonzeros in inequality constraint Jacobian.:        0
Number of nonzeros in Lagrangian Hessian.............:      525

Total number of variables............................:      647
                     variables with only lower bounds:        0
                variables with lower and upper bounds:      232
                     variables with only upper bounds:        0
Total number of equality constraints.................:      639
Total number of inequality constraints...............:        0
        inequality constraints with only lower bounds:        0
   inequality constraints with lower and upper bounds:        0
        inequality constraints with only upper bounds:        0

iter    objective    inf_pr   inf_du lg(mu)  ||d||  lg(rg) alpha_du alpha_pr  ls
   0  4.9462995e+00 9.90e+01 2.14e-05  -1.0 0.00e+00    -  0.00e+00 0.00e+00   0
   1  4.9694288e+00 1.96e+01 1.83e+01  -1.0 1.00e+02    -  4.93e-02 9.90e-01h  1
   2  4.9588540e+00 5.26e+00 4.41e-01  -1.0 1.50e+01    -  9.33e-01 1.00e+00h  1
   3  4.9465901e+00 5.79e+00 6.17e-02  -1.0 3.97e+00    -  9.92e-01 1.00e+00h  1
   4  4.9476670e+00 1.72e+00 5.13e-04  -1.0 6.95e+00    -  1.00e+00 1.00e+00h  1
   5  4.9473384e+00 6.58e-02 1.24e-05  -1.0 1.27e+00    -  1.00e+00 1.00e+00h  1
   6  4.9463630e+00 2.79e-01 7.11e-02  -2.5 9.51e-01    -  9.90e-01 1.00e+00h  1
   7  4.9463279e+00 2.74e-02 8.31e-06  -2.5 6.11e-01    -  1.00e+00 1.00e+00h  1
   8  4.9463267e+00 1.21e-03 6.10e-07  -3.8 1.12e-01    -  1.00e+00 1.00e+00h  1
   9  4.9463266e+00 4.06e-06 1.04e-04  -5.7 6.30e-03    -  9.91e-01 1.00e+00h  1
iter    objective    inf_pr   inf_du lg(mu)  ||d||  lg(rg) alpha_du alpha_pr  ls
  10  4.9463054e+00 1.93e-07 1.28e-05  -5.7 5.78e-01    -  7.67e-01 1.00e+00h  1
  11  4.9462995e+00 3.37e-09 1.55e-05  -8.6 1.51e-01    -  8.23e-01 1.00e+00h  1
  12  4.9462974e+00 2.06e-09 1.64e-06  -8.6 6.07e-02    -  9.95e-01 9.36e-01h  1
  13  4.9462974e+00 9.34e-12 2.09e-13  -8.6 1.24e-03    -  1.00e+00 1.00e+00f  1

Number of Iterations....: 13

                                   (scaled)                 (unscaled)
Objective...............:   4.9462973700002184e+00    4.9462973700002184e+00
Dual infeasibility......:   2.0866641747829817e-13    2.0866641747829817e-13
Constraint violation....:   9.3445251536818891e-12    9.3445251536818891e-12
Variable bound violation:   0.0000000000000000e+00    0.0000000000000000e+00
Complementarity.........:   3.7230433065440754e-09    3.7230433065440754e-09
Overall NLP error.......:   3.7230433065440754e-09    3.7230433065440754e-09


Number of objective function evaluations             = 14
Number of objective gradient evaluations             = 14
Number of equality constraint evaluations            = 14
Number of inequality constraint evaluations          = 0
Number of equality constraint Jacobian evaluations   = 14
Number of inequality constraint Jacobian evaluations = 0
Number of Lagrangian Hessian evaluations             = 13
Total seconds in IPOPT                               = 0.051

EXIT: Optimal Solution Found.
